p cnf 87 405
1 2 3 4 5 0
6 7 8 9 10 11 0
12 13 14 15 0
16 17 18 19 0
20 21 22 23 0
28 29 30 31 32 0
33 34 35 36 37 0
38 39 40 41 0
42 43 0
44 45 46 47 48 49 50 0
51 52 53 54 55 0
56 57 58 59 0
60 61 62 63 0
64 65 66 67 0
68 69 70 71 72 0
73 74 0
75 76 77 78 79 0
80 81 82 83 0
84 85 86 87 0
-1 -6 0
-1 -20 0
-1 -38 0
-1 -44 0
-1 -56 0
-1 -73 0
-1 -75 0
-1 -80 0
-1 -84 0
-6 -20 0
-6 -38 0
-6 -44 0
-6 -56 0
-6 -73 0
-6 -75 0
-6 -80 0
-6 -84 0
-20 -38 0
-20 -44 0
-20 -56 0
-20 -73 0
-20 -75 0
-20 -80 0
-20 -84 0
-38 -44 0
-38 -56 0
-38 -73 0
-38 -75 0
-38 -80 0
-38 -84 0
-44 -56 0
-44 -73 0
-44 -75 0
-44 -80 0
-44 -84 0
-56 -73 0
-56 -75 0
-56 -80 0
-56 -84 0
-73 -75 0
-73 -80 0
-73 -84 0
-75 -80 0
-75 -84 0
-80 -84 0
-7 -12 0
-7 -16 0
-7 -21 0
-7 -24 0
-7 -28 0
-7 -45 0
-7 -60 0
-7 -68 0
-7 -74 0
-7 -76 0
-12 -16 0
-12 -21 0
-12 -24 0
-12 -28 0
-12 -45 0
-12 -60 0
-12 -68 0
-12 -74 0
-12 -76 0
-16 -21 0
-16 -24 0
-16 -28 0
-16 -45 0
-16 -60 0
-16 -68 0
-16 -74 0
-16 -76 0
-21 -24 0
-21 -28 0
-21 -45 0
-21 -60 0
-21 -68 0
-21 -74 0
-21 -76 0
-24 -28 0
-24 -45 0
-24 -60 0
-24 -68 0
-24 -74 0
-24 -76 0
-28 -45 0
-28 -60 0
-28 -68 0
-28 -74 0
-28 -76 0
-45 -60 0
-45 -68 0
-45 -74 0
-45 -76 0
-60 -68 0
-60 -74 0
-60 -76 0
-68 -74 0
-68 -76 0
-74 -76 0
-8 -17 0
-8 -33 0
-8 -42 0
-8 -46 0
-8 -51 0
-8 -57 0
-8 -64 0
-8 -85 0
-17 -33 0
-17 -42 0
-17 -46 0
-17 -51 0
-17 -57 0
-17 -64 0
-17 -85 0
-33 -42 0
-33 -46 0
-33 -51 0
-33 -57 0
-33 -64 0
-33 -85 0
-42 -46 0
-42 -51 0
-42 -57 0
-42 -64 0
-42 -85 0
-46 -51 0
-46 -57 0
-46 -64 0
-46 -85 0
-51 -57 0
-51 -64 0
-51 -85 0
-57 -64 0
-57 -85 0
-64 -85 0
-2 -9 0
-2 -22 0
-2 -29 0
-2 -47 0
-2 -52 0
-2 -65 0
-2 -69 0
-2 -77 0
-2 -86 0
-9 -22 0
-9 -29 0
-9 -47 0
-9 -52 0
-9 -65 0
-9 -69 0
-9 -77 0
-9 -86 0
-22 -29 0
-22 -47 0
-22 -52 0
-22 -65 0
-22 -69 0
-22 -77 0
-22 -86 0
-29 -47 0
-29 -52 0
-29 -65 0
-29 -69 0
-29 -77 0
-29 -86 0
-47 -52 0
-47 -65 0
-47 -69 0
-47 -77 0
-47 -86 0
-52 -65 0
-52 -69 0
-52 -77 0
-52 -86 0
-65 -69 0
-65 -77 0
-65 -86 0
-69 -77 0
-69 -86 0
-77 -86 0
-13 -18 0
-13 -25 0
-13 -30 0
-13 -34 0
-13 -39 0
-13 -48 0
-13 -53 0
-13 -58 0
-13 -61 0
-13 -70 0
-13 -81 0
-18 -25 0
-18 -30 0
-18 -34 0
-18 -39 0
-18 -48 0
-18 -53 0
-18 -58 0
-18 -61 0
-18 -70 0
-18 -81 0
-25 -30 0
-25 -34 0
-25 -39 0
-25 -48 0
-25 -53 0
-25 -58 0
-25 -61 0
-25 -70 0
-25 -81 0
-30 -34 0
-30 -39 0
-30 -48 0
-30 -53 0
-30 -58 0
-30 -61 0
-30 -70 0
-30 -81 0
-34 -39 0
-34 -48 0
-34 -53 0
-34 -58 0
-34 -61 0
-34 -70 0
-34 -81 0
-39 -48 0
-39 -53 0
-39 -58 0
-39 -61 0
-39 -70 0
-39 -81 0
-48 -53 0
-48 -58 0
-48 -61 0
-48 -70 0
-48 -81 0
-53 -58 0
-53 -61 0
-53 -70 0
-53 -81 0
-58 -61 0
-58 -70 0
-58 -81 0
-61 -70 0
-61 -81 0
-70 -81 0
-35 -40 0
-35 -49 0
-35 -54 0
-35 -66 0
-35 -71 0
-35 -82 0
-40 -49 0
-40 -54 0
-40 -66 0
-40 -71 0
-40 -82 0
-49 -54 0
-49 -66 0
-49 -71 0
-49 -82 0
-54 -66 0
-54 -71 0
-54 -82 0
-66 -71 0
-66 -82 0
-71 -82 0
-3 -10 0
-3 -14 0
-3 -26 0
-3 -31 0
-3 -41 0
-3 -43 0
-3 -50 0
-3 -67 0
-3 -72 0
-10 -14 0
-10 -26 0
-10 -31 0
-10 -41 0
-10 -43 0
-10 -50 0
-10 -67 0
-10 -72 0
-14 -26 0
-14 -31 0
-14 -41 0
-14 -43 0
-14 -50 0
-14 -67 0
-14 -72 0
-26 -31 0
-26 -41 0
-26 -43 0
-26 -50 0
-26 -67 0
-26 -72 0
-31 -41 0
-31 -43 0
-31 -50 0
-31 -67 0
-31 -72 0
-41 -43 0
-41 -50 0
-41 -67 0
-41 -72 0
-43 -50 0
-43 -67 0
-43 -72 0
-50 -67 0
-50 -72 0
-67 -72 0
-4 -15 0
-4 -27 0
-4 -36 0
-4 -59 0
-4 -62 0
-4 -78 0
-4 -87 0
-15 -27 0
-15 -36 0
-15 -59 0
-15 -62 0
-15 -78 0
-15 -87 0
-27 -36 0
-27 -59 0
-27 -62 0
-27 -78 0
-27 -87 0
-36 -59 0
-36 -62 0
-36 -78 0
-36 -87 0
-59 -62 0
-59 -78 0
-59 -87 0
-62 -78 0
-62 -87 0
-78 -87 0
-5 -11 0
-5 -19 0
-5 -23 0
-5 -32 0
-5 -37 0
-5 -55 0
-5 -63 0
-5 -79 0
-5 -83 0
-11 -19 0
-11 -23 0
-11 -32 0
-11 -37 0
-11 -55 0
-11 -63 0
-11 -79 0
-11 -83 0
-19 -23 0
-19 -32 0
-19 -37 0
-19 -55 0
-19 -63 0
-19 -79 0
-19 -83 0
-23 -32 0
-23 -37 0
-23 -55 0
-23 -63 0
-23 -79 0
-23 -83 0
-32 -37 0
-32 -55 0
-32 -63 0
-32 -79 0
-32 -83 0
-37 -55 0
-37 -63 0
-37 -79 0
-37 -83 0
-55 -63 0
-55 -79 0
-55 -83 0
-63 -79 0
-63 -83 0
-79 -83 0
